min: a1 + a2;
c1: X11 = 1;
c2: X21 = 1;
c3: X31 + X32= 1;
c4: X41 + X42 + X43= 1;
c5: X51 + X52 + X53 + X54= 1;
c6: X61 + X62 + X63 + X64 + X65= 1;
c7: X71 + X72 + X73 + X74 + X75 + X76= 1;
c8: X81 + X82 + X83 + X84 + X85 + X86 + X87= 1;
c9: X91 + X92 + X93 + X94 + X95 + X96 + X97 + X98= 1;
c10: X101 + X102 + X103 + X104 + X105 + X106 + X107 + X108 + X109= 1;
c11: X111 + X112 + X113 + X114 + X115 + X116 + X117 + X118 + X119 + X1110= 1;
c12: X122 = 1;
c13: X133 = 1;
c14: X144 = 1;
c15: X155 = 1;
c16: X166 = 1;
c17: X177 = 1;
c18: X188 = 1;
c19: X199 = 1;
c20: X2010 = 1;
c21: X2111 = 1;
c22: X222 = 1;
c23: X233 = 1;
c24: X244 = 1;
c25: X255 = 1;
c26: X266 = 1;
c27: X277 = 1;
c28: X288 = 1;
c29: X299 = 1;
c30: X3010 = 1;
c31: X3111 = 1;
c32: X112 = 1;

c33: X11 + X21 + X31 + X41 + X51 + X61 + X71 + X81 + X91 + X101 + X111 - a1 <= 0;
c34: X32 + X42 + X52 + X62 + X72 + X82 + X92 + X102 + X112 - a1 <= 0;
c35: X43 + X53 + X63 + X73 + X83 + X93 + X103 + X113 - a1 <= 0;
c36: X54 + X64 + X74 + X84 + X94 + X104 + X114 - a1 <= 0;
c37: X65 + X75 + X85 + X95 + X105 + X115 - a1 <= 0;
c38: X76 + X86 + X96 + X106 + X116 - a1 <= 0;
c39: X87 + X97 + X107 + X117 - a1 <= 0;
c40: X98 + X108 + X118 - a1 <= 0;
c41: X109 + X119 - a1 <= 0;
c42: X1110 - a1 <= 0;

c43: X122 + X222 - a2 <= 0;
c44: X133 + X233 - a2 <= 0;
c45: X144 + X244 - a2 <= 0;
c46: X155 + X255 - a2 <= 0;
c47: X166 + X266 - a2 <= 0;
c48: X177 + X277 - a2 <= 0;
c49: X188 + X288 - a2 <= 0;
c50: X199 + X299 - a2 <= 0;
c51: X2010 + X3010 - a2 <= 0;
c52: X2111 + X3111 - a2 <= 0;

int a1, a2, X31, X32, X41, X42, X43, X51, X52, X53, X54, X61, X62, X63, X64, X65, X71, X72, X73, X74, X75, X76, X81, X82, X83, X84, X85, X86, X87, X91, X92, X93, X94, X95, X96, X97, X98, X101, X102, X103, X104, X105, X106, X107, X108, X109, X111, X112, X113, X114, X115, X116, X117, X118, X119, X1110;
